# Solution for model runway_allocation
# Objective value = 8.3445759751105919e-01
x0_0_0 1
x0_0_60 0
x0_0_120 0
x0_0_180 0
x0_0_240 0
x0_0_300 0
x0_0_360 0
x0_0_420 0
x0_0_480 0
x0_0_540 0
x0_1_0 0
x0_1_60 0
x0_1_120 0
x0_1_180 0
x0_1_240 0
x0_1_300 0
x0_1_360 0
x0_1_420 0
x0_1_480 0
x0_1_540 0
x0_2_0 0
x0_2_60 0
x0_2_120 0
x0_2_180 0
x0_2_240 0
x0_2_300 0
x0_2_360 0
x0_2_420 0
x0_2_480 0
x0_2_540 0
x1_0_0 1
x1_0_60 0
x1_0_120 0
x1_0_180 0
x1_0_240 0
x1_0_300 0
x1_0_360 0
x1_0_420 0
x1_0_480 0
x1_0_540 0
x1_1_0 0
x1_1_60 0
x1_1_120 0
x1_1_180 0
x1_1_240 0
x1_1_300 0
x1_1_360 0
x1_1_420 0
x1_1_480 0
x1_1_540 0
x1_2_0 0
x1_2_60 0
x1_2_120 0
x1_2_180 0
x1_2_240 0
x1_2_300 0
x1_2_360 0
x1_2_420 0
x1_2_480 0
x1_2_540 0
x2_0_0 1
x2_0_60 0
x2_0_120 0
x2_0_180 0
x2_0_240 0
x2_0_300 0
x2_0_360 0
x2_0_420 0
x2_0_480 0
x2_0_540 0
x2_1_0 0
x2_1_60 0
x2_1_120 0
x2_1_180 0
x2_1_240 0
x2_1_300 0
x2_1_360 0
x2_1_420 0
x2_1_480 0
x2_1_540 0
x2_2_0 0
x2_2_60 0
x2_2_120 0
x2_2_180 0
x2_2_240 0
x2_2_300 0
x2_2_360 0
x2_2_420 0
x2_2_480 0
x2_2_540 0
x3_0_0 1
x3_0_60 0
x3_0_120 0
x3_0_180 0
x3_0_240 0
x3_0_300 0
x3_0_360 0
x3_0_420 0
x3_0_480 0
x3_0_540 0
x3_1_0 0
x3_1_60 0
x3_1_120 0
x3_1_180 0
x3_1_240 0
x3_1_300 0
x3_1_360 0
x3_1_420 0
x3_1_480 0
x3_1_540 0
x3_2_0 0
x3_2_60 0
x3_2_120 0
x3_2_180 0
x3_2_240 0
x3_2_300 0
x3_2_360 0
x3_2_420 0
x3_2_480 0
x3_2_540 0
x4_0_0 1
x4_0_60 0
x4_0_120 0
x4_0_180 0
x4_0_240 0
x4_0_300 0
x4_0_360 0
x4_0_420 0
x4_0_480 0
x4_0_540 0
x4_1_0 0
x4_1_60 0
x4_1_120 0
x4_1_180 0
x4_1_240 0
x4_1_300 0
x4_1_360 0
x4_1_420 0
x4_1_480 0
x4_1_540 0
x4_2_0 0
x4_2_60 0
x4_2_120 0
x4_2_180 0
x4_2_240 0
x4_2_300 0
x4_2_360 0
x4_2_420 0
x4_2_480 0
x4_2_540 0
